NAME /Users/henri/Research/solvers/instances/idol-instances/robust/collection/cbp_Subramanyam_et_al_2020/CapBud_N20_8/models/uncertain_technology_matrix/
ROWS
 N  OBJ
 L  capacity
 L  c_2665
 L  c_2666
 L  c_2667
 L  c_2668
 L  c_2669
 L  c_2670
 L  c_2671
 L  c_2672
 L  c_2673
 L  c_2674
 L  c_2675
 L  c_2676
 L  c_2677
 L  c_2678
 L  c_2679
 L  c_2680
 L  c_2681
 L  c_2682
 L  c_2683
 L  c_2684
COLUMNS
    MARKER    'MARKER'                 'INTORG'
    x_0        OBJ        6.30983
    x_0        c_2665     1
    x_0        capacity   1.26197
    x_1        OBJ        7.31307
    x_1        c_2666     1
    x_1        capacity   1.46261
    x_2        OBJ        9.14255
    x_2        c_2667     1
    x_2        capacity   1.82851
    x_3        OBJ        8.11561
    x_3        c_2668     1
    x_3        capacity   1.62312
    x_4        OBJ        6.17285
    x_4        c_2669     1
    x_4        capacity   1.23457
    x_5        OBJ        8.81034
    x_5        c_2670     1
    x_5        capacity   1.76207
    x_6        OBJ        6.58565
    x_6        c_2671     1
    x_6        capacity   1.31713
    x_7        OBJ        1.42901
    x_7        c_2672     1
    x_7        capacity   0.285802
    x_8        OBJ        3.01052
    x_8        c_2673     1
    x_8        capacity   0.602103
    x_9        OBJ        1.47815
    x_9        c_2674     1
    x_9        capacity   0.29563
    x_10       OBJ        1.05066
    x_10       c_2675     1
    x_10       capacity   0.210131
    x_11       OBJ        6.01082
    x_11       c_2676     1
    x_11       capacity   1.20216
    x_12       OBJ        1.90874
    x_12       c_2677     1
    x_12       capacity   0.381747
    x_13       OBJ        9.26255
    x_13       c_2678     1
    x_13       capacity   1.85251
    x_14       OBJ        5.85723
    x_14       c_2679     1
    x_14       capacity   1.17145
    x_15       OBJ        2.53929
    x_15       c_2680     1
    x_15       capacity   0.507858
    x_16       OBJ        5.57249
    x_16       c_2681     1
    x_16       capacity   1.1145
    x_17       OBJ        7.08121
    x_17       c_2682     1
    x_17       capacity   1.41624
    x_18       OBJ        4.68403
    x_18       c_2683     1
    x_18       capacity   0.936807
    x_19       OBJ        9.05154
    x_19       c_2684     1
    x_19       capacity   1.81031
    y_0        OBJ        5.04787
    y_0        c_2665     1
    y_0        capacity   1.26197
    y_1        OBJ        5.85045
    y_1        c_2666     1
    y_1        capacity   1.46261
    y_2        OBJ        7.31404
    y_2        c_2667     1
    y_2        capacity   1.82851
    y_3        OBJ        6.49248
    y_3        c_2668     1
    y_3        capacity   1.62312
    y_4        OBJ        4.93828
    y_4        c_2669     1
    y_4        capacity   1.23457
    y_5        OBJ        7.04828
    y_5        c_2670     1
    y_5        capacity   1.76207
    y_6        OBJ        5.26852
    y_6        c_2671     1
    y_6        capacity   1.31713
    y_7        OBJ        1.14321
    y_7        c_2672     1
    y_7        capacity   0.285802
    y_8        OBJ        2.40841
    y_8        c_2673     1
    y_8        capacity   0.602103
    y_9        OBJ        1.18252
    y_9        c_2674     1
    y_9        capacity   0.29563
    y_10       OBJ        0.840525
    y_10       c_2675     1
    y_10       capacity   0.210131
    y_11       OBJ        4.80865
    y_11       c_2676     1
    y_11       capacity   1.20216
    y_12       OBJ        1.52699
    y_12       c_2677     1
    y_12       capacity   0.381747
    y_13       OBJ        7.41004
    y_13       c_2678     1
    y_13       capacity   1.85251
    y_14       OBJ        4.68578
    y_14       c_2679     1
    y_14       capacity   1.17145
    y_15       OBJ        2.03143
    y_15       c_2680     1
    y_15       capacity   0.507858
    y_16       OBJ        4.45799
    y_16       c_2681     1
    y_16       capacity   1.1145
    y_17       OBJ        5.66496
    y_17       c_2682     1
    y_17       capacity   1.41624
    y_18       OBJ        3.74723
    y_18       c_2683     1
    y_18       capacity   0.936807
    y_19       OBJ        7.24123
    y_19       c_2684     1
    y_19       capacity   1.81031
    MARKER    'MARKER'                 'INTEND'
RHS
    RHS       capacity   55.6931
    RHS       c_2665     1
    RHS       c_2666     1
    RHS       c_2667     1
    RHS       c_2668     1
    RHS       c_2669     1
    RHS       c_2670     1
    RHS       c_2671     1
    RHS       c_2672     1
    RHS       c_2673     1
    RHS       c_2674     1
    RHS       c_2675     1
    RHS       c_2676     1
    RHS       c_2677     1
    RHS       c_2678     1
    RHS       c_2679     1
    RHS       c_2680     1
    RHS       c_2681     1
    RHS       c_2682     1
    RHS       c_2683     1
    RHS       c_2684     1
BOUNDS
 LI BND       x_0        0
 UI BND       x_0        1
 LI BND       x_1        0
 UI BND       x_1        1
 LI BND       x_2        0
 UI BND       x_2        1
 LI BND       x_3        0
 UI BND       x_3        1
 LI BND       x_4        0
 UI BND       x_4        1
 LI BND       x_5        0
 UI BND       x_5        1
 LI BND       x_6        0
 UI BND       x_6        1
 LI BND       x_7        0
 UI BND       x_7        1
 LI BND       x_8        0
 UI BND       x_8        1
 LI BND       x_9        0
 UI BND       x_9        1
 LI BND       x_10       0
 UI BND       x_10       1
 LI BND       x_11       0
 UI BND       x_11       1
 LI BND       x_12       0
 UI BND       x_12       1
 LI BND       x_13       0
 UI BND       x_13       1
 LI BND       x_14       0
 UI BND       x_14       1
 LI BND       x_15       0
 UI BND       x_15       1
 LI BND       x_16       0
 UI BND       x_16       1
 LI BND       x_17       0
 UI BND       x_17       1
 LI BND       x_18       0
 UI BND       x_18       1
 LI BND       x_19       0
 UI BND       x_19       1
 LI BND       y_0        0
 UI BND       y_0        1
 LI BND       y_1        0
 UI BND       y_1        1
 LI BND       y_2        0
 UI BND       y_2        1
 LI BND       y_3        0
 UI BND       y_3        1
 LI BND       y_4        0
 UI BND       y_4        1
 LI BND       y_5        0
 UI BND       y_5        1
 LI BND       y_6        0
 UI BND       y_6        1
 LI BND       y_7        0
 UI BND       y_7        1
 LI BND       y_8        0
 UI BND       y_8        1
 LI BND       y_9        0
 UI BND       y_9        1
 LI BND       y_10       0
 UI BND       y_10       1
 LI BND       y_11       0
 UI BND       y_11       1
 LI BND       y_12       0
 UI BND       y_12       1
 LI BND       y_13       0
 UI BND       y_13       1
 LI BND       y_14       0
 UI BND       y_14       1
 LI BND       y_15       0
 UI BND       y_15       1
 LI BND       y_16       0
 UI BND       y_16       1
 LI BND       y_17       0
 UI BND       y_17       1
 LI BND       y_18       0
 UI BND       y_18       1
 LI BND       y_19       0
 UI BND       y_19       1
ENDATA
